ID_groupA
33243
53384
53384
33243
33243
47560
33243
33243
33243
33243
53384
33243
12196
33243
53384
12196
33243
33243
33243
33243
33243
33243
33243
53384
33243
12196
33243
53384
12196
53384
53384
53384
33243
33243
53384
53384
53384
12196
53384
12196
12196
53384
53384
33243
33243
12196
53384
53384
12196
12196
12196
33243
33243
33243
33243
12196
53384
33243
12196
12196
33243
33243
33243
33243
33243
53384
33243
12196
33243
47560
33243
33243
33243
53384
47560
53384
47560
33243
33243
33243
53384
47560
53384
53384
33243
33243
33243
33243
33243
33243
33243
33243
33243
12196
33243
53384
33243
12196
33243
53384
53384
53384
12196
33243
12196
